p cnf 24 29                 
-2 -1 -6 0
6 -14 0
-1 7 0
-2 7 0
1 2 -7 0
-7 -3 -8 0
8 -14 0
-3 9 0
-7 9 0
3 7 -9 0
-9 -4 -10 0
10 -14 0
-4 11 0
-9 11 0
4 9 -11 0
-11 -5 -12 0
12 -14 0
5 11 -13 0
13 -14 0
-1 2 -15 0
15 -23 0
-2 3 -17 0
17 -23 0
-3 4 -19 0
19 -23 0
-4 5 -21 0
21 -23 0
14 0
23 0
